artifact/ReVEAL/exp2_solver1/resyn3_new/resyn3_64_result_cec/64_64_U2_4to2_HCA_Multgen_resyn3.txt
ABC command line: "&cec /data/artifact/AMulet2.0_artifact/64_resyn3/64_64_U2_4to2_HCA_Multgen_resyn3.aig /data/artifact/AMulet2.0_artifact/64_default/64_64_U2_4to2_HCA_Multgen_default.aig".

Networks are equivalent.  Time =  1096.92 sec
