artifact/ReVEAL/exp2_solver1/resyn3_new/resyn3_64_result_kissat/64_64_U2_4to2_HCA_Multgen_resyn3.result
c ---- [ banner ] ------------------------------------------------------------
c
c Kissat SAT Solver
c 
c Copyright (c) 2021-2024 Armin Biere University of Freiburg
c Copyright (c) 2019-2021 Armin Biere Johannes Kepler University Linz
c 
c Version 4.0.1 43f02cf3e992cb44653b35e5cb26f93281552ae0
c gcc (Ubuntu 13.2.0-23ubuntu4) 13.2.0 -W -Wall -O3 -DNDEBUG
c Thu Sep 12 12:27:46 CEST 2024 Linux abryzen9 6.8.0-41-generic x86_64
c
c ---- [ parsing ] -----------------------------------------------------------
c
c opened and reading DIMACS file:
c
c   /data/artifact/AMulet2.0_artifact/exp4/cnf_resyn3_64/64_64_U2_4to2_HCA_Multgen_resyn3.cnf
c
c parsed 'p cnf 21792 85326' header
c closing input after reading 1666854 bytes (2 MB)
c finished parsing after 0.02 seconds
c
c ---- [ options ] -----------------------------------------------------------
c
c --stable=0                       (different from default '1')
c
c ---- [ solving ] -----------------------------------------------------------
c
c  seconds switched rate     size/glue tier1  binary         remaining
c         MB reductions conflicts size  tier2    irredundant
c          level restarts redundant glue  trail         variables
c
c *  0.02  9 0 0 0  0 0   0   0 0.0 0 0 0 0 0% 5168 80156 21789 100%
c (  0.02  9 0 0 0  0 0   0   0 0.0 0 0 0 0 0% 5168 80156 21789 100%
c .  0.02  9 0 0 0  0 0   0   0 0.0 0 0 0 0 0% 5164 80156 21789 100%
c c  0.07 17 0 0 0  0 0   0   0 0.0 0 0 0 0 0% 5418 79845 21621 99%
c d  0.07 17 0 0 0  0 0   0   0 0.0 0 0 0 0 0% 5030 79845 21621 99%
c =  0.10 17 0 0 0  0 0   0   0 0.0 0 0 0 0 0% 4971 79845 21615 99%
c d  0.11 17 0 0 0  0 0   0   0 0.0 0 0 0 0 0% 4982 79819 21615 99%
c d  0.11 17 0 0 0  0 0   0   0 0.0 0 0 0 0 0% 4973 79819 21611 99%
c f  0.15 16 0 0 0  0 0   0   0 0.0 0 0 0 0 0% 4963 79812 21615 99%
c e  0.29 18 0 0 0  0 0   0   0 0.0 0 0 0 0 0% 4114 80298 16797 77%
c )  0.29 18 0 0 0  0 0   0   0 0.0 0 0 0 0 0% 4114 80298 16797 77%
c {  0.30 18 0 0 0  0 0   0   0 0.0 0 0 2 6 0% 4114 80298 16797 77%
c i  0.31 18 113 0 0 62 14 236 189 1.8 5 3 2 4 7% 4140 80297 16796 77%
c -  0.37 18 106 0 1 281 22 1000 787 1.7 7 4 3 7 14% 4186 80289 16796 77%
c -  0.53 18 107 0 2 588 29 2000 1576 1.9 8 4 3 8 16% 4196 80289 16796 77%
c c  0.63 18 142 0 2 681 31 2503 2049 1.9 9 5 3 9 17% 4241 80248 16782 77%
c d  0.64 18 142 0 2 681 31 2503 2049 1.9 9 5 3 9 17% 4213 80248 16782 77%
c b  0.64 18 142 0 2 681 31 2503 2049 1.9 9 5 3 9 17% 4213 80248 16781 77%
c u  0.65 18 142 0 2 681 31 2503 1590 1.9 9 5 3 9 17% 4208 80248 16781 77%
c v  0.66 18 142 0 2 681 31 2503 1427 1.9 9 5 3 9 17% 4208 80248 16781 77%
c
c  seconds   switched   rate       size/glue tier1   binary         remaining
c         MB  reductions conflicts      size  tier2     irredundant
c           level restarts    redundant   glue   trail         variables
c
c w  0.67 18 142 0 2 681 31 2503 1427 1.9 9 5 3 9 17% 4208 80248 16781 77%
c x  0.68 18 142 0 2 681 31 2503 1426 1.9 9 5 3 9 17% 4283 80092 16781 77%
c d  0.73 18 142 0 2 681 31 2503 1426 1.9 9 5 3 9 17% 4279 80091 16779 77%
c t  0.74 18 142 0 2 681 31 2503 1426 1.9 9 5 3 9 17% 4204 80091 16779 77%
c f  0.76 18 142 0 2 681 31 2503 1426 1.9 9 5 3 9 17% 4379 79827 16867 77%
c u  0.78 18 142 0 2 681 31 2503 1397 1.9 9 5 3 9 17% 4379 79827 16867 77%
c v  0.80 18 142 0 2 681 31 2503 1313 1.9 9 5 3 9 17% 4379 79827 16867 77%
c w  0.81 18 142 0 2 681 31 2503 1311 1.9 9 5 3 9 17% 4379 79827 16867 77%
c x  0.83 18 142 0 2 681 31 2503 1311 1.9 9 5 3 9 17% 4432 79726 16867 77%
c t  0.84 18 142 0 2 681 31 2503 1311 1.9 9 5 3 9 17% 4382 79726 16867 77%
c f  0.86 18 142 0 2 681 31 2503 1311 1.9 9 5 3 9 17% 4407 79678 16880 77%
c -  0.99 18 135 0 3 852 30 3414 1899 1.8 9 5 3 9 17% 4407 79678 16880 77%
c -  1.31 18 128 0 4 1201 29 5147 3140 1.9 9 5 4 9 19% 4417 79678 16880 77%
c -  1.54 18 129 0 5 1387 27 7147 4342 1.9 9 5 3 9 20% 4431 79678 16880 77%
c u  1.72 20 126 0 5 1474 26 7710 4004 1.9 10 5 3 9 20% 4440 79678 16880 77%
c v  1.74 20 126 0 5 1474 26 7710 3684 1.9 10 5 3 9 20% 4440 79678 16880 77%
c w  1.76 20 126 0 5 1474 26 7710 3683 1.9 10 5 3 9 20% 4440 79678 16880 77%
c x  1.78 21 126 0 5 1474 26 7710 3683 1.9 10 5 3 9 20% 4454 79650 16879 77%
c =  1.88 21 126 0 5 1474 26 7710 3683 1.9 10 5 3 9 20% 4501 79637 16854 77%
c d  1.89 21 126 0 5 1474 26 7710 3683 1.9 10 5 3 9 20% 4455 79634 16854 77%
c
c  seconds   switched    rate       size/glue tier1    binary         remaining
c         MB  reductions  conflicts       size  tier2     irredundant
c           level  restarts    redundant    glue   trail         variables
c
c t  1.90 21 126 0 5 1474 26 7710 3683 1.9 10 5 3 9 20% 4427 79634 16854 77%
c f  1.93 21 126 0 5 1474 26 7710 3683 1.9 10 5 3 9 20% 4445 79605 16864 77%
c u  1.97 21 126 0 5 1474 26 7710 3601 1.9 10 5 3 9 20% 4447 79605 16864 77%
c v  2.00 21 126 0 5 1474 26 7710 3413 1.9 10 5 3 9 20% 4447 79605 16864 77%
c w  2.02 21 126 0 5 1474 26 7710 3408 1.9 10 5 3 9 20% 4447 79605 16864 77%
c =  2.12 21 126 0 5 1474 26 7710 3408 1.9 10 5 3 9 20% 4525 79605 16825 77%
c d  2.13 21 126 0 5 1474 26 7710 3395 1.9 10 5 3 9 20% 4443 79605 16825 77%
c t  2.14 21 126 0 5 1474 26 7710 3395 1.9 10 5 3 9 20% 4408 79605 16825 77%
c f  2.17 21 126 0 5 1474 26 7710 3395 1.9 10 5 3 9 20% 4411 79600 16827 77%
c i  2.17 21 126 0 5 1474 26 7710 3395 1.9 10 5 3 9 20% 4411 79600 16827 77%
c -  2.36 21 127 0 6 1656 25 9383 4265 1.9 10 5 3 9 20% 4413 79600 16827 77%
c o  2.47 21 131 0 6 1741 25 10131 4949 1.9 10 5 3 9 21% 4421 79599 16827 77%
c i  2.52 21 130 0 6 1776 25 10536 5327 2.0 10 5 3 9 21% 4423 79599 16826 77%
c i  2.71 21 133 0 6 1928 25 11516 6247 2.0 11 5 3 9 22% 4432 79599 16825 77%
c -  2.73 21 133 0 7 1952 25 11832 5723 2.0 11 5 3 8 21% 4430 79599 16825 77%
c s  2.84 21 135 0 7 2011 25 12514 6335 2.0 11 5 3 8 22% 4436 79335 16825 77%
c e  2.94 21 135 0 7 2011 25 12514 6335 2.0 11 5 3 8 22% 3602 79938 15196 70%
c s  2.95 21 135 0 7 2011 25 12514 6335 2.0 11 5 3 8 22% 3612 79700 15196 70%
c e  2.97 21 135 0 7 2011 25 12514 6335 2.0 11 5 3 8 22% 3573 79735 15169 70%
c ^  2.97 21 135 0 7 2011 25 12514 6335 2.0 11 5 3 8 22% 3573 79735 15169 70%
c
c  seconds   switched    rate        size/glue tier1    binary         remaining
c         MB  reductions   conflicts       size  tier2     irredundant
c           level  restarts     redundant    glue   trail         variables
c
c -  3.25 27 135 0 8 2212 24 14477 6127 2.0 11 5 3 8 23% 3580 79733 15169 70%
c u  3.42 27 133 0 8 2320 23 15794 6315 2.0 10 5 3 8 23% 3588 79733 15169 70%
c v  3.45 27 133 0 8 2320 23 15794 6019 2.0 10 5 3 8 23% 3588 79733 15169 70%
c w  3.46 27 133 0 8 2320 23 15794 6012 2.0 10 5 3 8 23% 3588 79733 15169 70%
c x  3.49 27 133 0 8 2320 23 15794 6012 2.0 10 5 3 8 23% 3598 79719 15169 70%
c t  3.62 27 133 0 8 2320 23 15794 6012 2.0 10 5 3 8 23% 3588 79719 15169 70%
c f  3.66 19 133 0 8 2320 23 15794 6012 2.0 10 5 3 8 23% 3594 79678 15184 70%
c c  3.72 18 133 0 8 2320 23 15794 6009 2.0 10 5 3 8 23% 3605 79659 15178 70%
c d  3.72 18 133 0 8 2320 23 15794 6009 2.0 10 5 3 8 23% 3593 79659 15178 70%
c u  3.76 18 133 0 8 2320 23 15794 5525 2.0 10 5 3 8 23% 3593 79659 15178 70%
c v  3.80 18 133 0 8 2320 23 15794 5163 2.0 10 5 3 8 23% 3593 79659 15178 70%
c w  3.81 18 133 0 8 2320 23 15794 5148 2.0 10 5 3 8 23% 3593 79659 15178 70%
c f  3.86 18 133 0 8 2320 23 15794 5148 2.0 10 5 3 8 23% 3571 79635 15201 70%
c -  4.12 18 132 0 9 2451 23 17306 5676 1.9 10 5 3 8 23% 3577 79634 15201 70%
c o  4.50 20 128 0 9 2690 22 20133 8264 1.9 10 5 3 8 23% 3593 79633 15201 70%
c -  4.53 20 127 0 10 2724 22 20307 7399 1.9 10 5 3 8 23% 3593 79633 15201 70%
c -  4.96 20 124 0 11 3080 21 23469 9035 1.9 10 5 3 8 23% 3621 79633 15201 70%
c s  5.16 20 124 0 11 3311 21 25029 10505 1.9 10 6 3 8 23% 3628 79546 15201 70%
c e  5.26 20 124 0 11 3311 21 25029 10505 1.9 10 6 3 8 23% 3219 80156 14709 68%
c s  5.26 20 124 0 11 3311 21 25029 10505 1.9 10 6 3 8 23% 3247 79940 14709 68%
c
c  seconds   switched     rate         size/glue tier1    binary         remaining
c         MB   reductions   conflicts        size  tier2     irredundant
c           level   restarts      redundant    glue   trail         variables
c
c e  5.27 20 124 0 11 3311 21 25029 10505 1.9 10 6 3 8 23% 3230 79962 14694 67%
c ^  5.27 20 124 0 11 3311 21 25029 10505 1.9 10 6 3 8 23% 3230 79962 14694 67%
c -  5.54 20 123 0 12 3496 21 26786 9804 1.9 10 6 3 8 23% 3238 79962 14694 67%
c d  5.55 20 122 0 12 3496 21 26932 9914 1.9 10 6 3 8 23% 3242 79962 14693 67%
c u  5.61 20 122 0 12 3496 21 26932 7778 1.9 10 6 3 8 23% 3248 79962 14693 67%
c v  5.66 20 122 0 12 3496 21 26932 7142 1.9 10 6 3 8 23% 3248 79962 14693 67%
c w  5.67 20 122 0 12 3496 21 26932 7139 1.9 10 6 3 8 23% 3248 79962 14693 67%
c d  5.84 20 122 0 12 3496 21 26932 7136 1.9 10 6 3 8 23% 3244 79962 14691 67%
c t  5.85 20 122 0 12 3496 21 26932 7136 1.9 10 6 3 8 23% 3213 79962 14691 67%
c f  5.89 20 122 0 12 3496 21 26932 7136 1.9 10 6 3 8 23% 3240 79863 14714 68%
c u  5.94 20 122 0 12 3496 21 26932 6892 1.9 10 6 3 8 23% 3241 79863 14714 68%
c v  5.98 20 122 0 12 3496 21 26932 6706 1.9 10 6 3 8 23% 3241 79863 14714 68%
c w  5.99 20 122 0 12 3496 21 26932 6704 1.9 10 6 3 8 23% 3241 79863 14714 68%
c x  6.03 20 122 0 12 3496 21 26932 6699 1.9 10 6 3 8 23% 3269 79814 14714 68%
c t  6.05 20 122 0 12 3496 21 26932 6699 1.9 10 6 3 8 23% 3241 79814 14714 68%
c f  6.06 20 122 0 12 3496 21 26932 6699 1.9 10 6 3 8 23% 3247 79797 14717 68%
c -  6.58 20 124 0 13 3805 21 30250 8618 1.9 10 6 3 8 23% 3257 79797 14717 68%
c -  7.04 20 123 0 14 4111 20 33855 10640 1.9 10 6 3 8 24% 3272 79796 14717 68%
c -  7.45 20 120 0 15 4349 19 37596 11459 1.9 10 6 2 8 23% 3307 79792 14717 68%
c o  7.69 20 119 0 15 4458 18 40133 13747 1.9 10 6 2 8 23% 3332 79792 14717 68%
c
c  seconds   switched     rate         size/glue tier1    binary         remaining
c         MB   reductions   conflicts        size  tier2     irredundant
c           level   restarts      redundant    glue   trail         variables
c
c d  7.91 20 119 0 15 4611 19 41276 14831 1.9 11 6 2 8 23% 3331 79791 14715 68%
c u  7.98 20 119 0 15 4611 19 41276 13025 1.9 11 6 2 8 23% 3343 79791 14715 68%
c v  8.06 20 119 0 15 4611 19 41276 12285 1.9 11 6 2 8 23% 3343 79791 14715 68%
c w  8.09 20 119 0 15 4611 19 41276 12269 1.9 11 6 2 8 23% 3343 79791 14715 68%
c d  8.10 20 119 0 15 4611 19 41276 12269 1.9 11 6 2 8 23% 3341 79789 14714 68%
c t  8.12 20 119 0 15 4611 19 41276 12269 1.9 11 6 2 8 23% 3335 79789 14714 68%
c f  8.13 20 119 0 15 4611 19 41276 12269 1.9 11 6 2 8 23% 3336 79785 14715 68%
c c  8.20 20 119 0 15 4611 19 41276 12266 1.9 11 6 2 8 23% 3357 79731 14703 67%
c d  8.20 20 119 0 15 4611 19 41276 12266 1.9 11 6 2 8 23% 3333 79731 14703 67%
c u  8.25 20 119 0 15 4611 19 41276 12026 1.9 11 6 2 8 23% 3335 79731 14703 67%
c v  8.35 20 119 0 15 4611 19 41276 10607 1.9 11 6 2 8 23% 3335 79731 14703 67%
c w  8.38 20 119 0 15 4611 19 41276 10597 1.9 11 6 2 8 23% 3335 79731 14703 67%
c =  8.58 20 119 0 15 4611 19 41276 10597 1.9 11 6 2 8 23% 3337 79728 14702 67%
c d  8.59 20 119 0 15 4611 19 41276 10596 1.9 11 6 2 8 23% 3333 79728 14701 67%
c t  8.60 20 119 0 15 4611 19 41276 10596 1.9 11 6 2 8 23% 3329 79728 14701 67%
c -  8.66 20 119 0 16 4628 19 41472 8986 1.9 11 6 2 8 23% 3329 79728 14701 67%
c -  9.29 20 119 0 17 4971 19 45473 10796 1.9 11 6 2 8 24% 3353 79726 14701 67%
c -  9.80 20 119 0 18 5295 18 49596 12561 1.9 11 6 2 8 24% 3392 79722 14701 67%
c s 10.14 20 118 0 18 5495 18 52160 14886 1.9 11 6 2 8 24% 3403 79671 14701 67%
c e 10.25 20 118 0 18 5495 18 52160 14886 1.9 11 6 2 8 24% 3054 81198 13956 64%
c
c  seconds   switched     rate         size/glue tier1    binary         remaining
c         MB   reductions   conflicts        size  tier2     irredundant
c           level   restarts      redundant    glue   trail         variables
c
c s 10.26 20 118 0 18 5495 18 52160 14886 1.9 11 6 2 8 24% 3070 80798 13956 64%
c e 10.28 20 118 0 18 5495 18 52160 14886 1.9 11 6 2 8 24% 3033 80822 13924 64%
c ^ 10.28 20 118 0 18 5495 18 52160 14886 1.9 11 6 2 8 24% 3033 80822 13924 64%
c - 10.55 20 118 0 19 5664 18 53841 12399 1.9 11 6 2 8 24% 3037 80822 13924 64%
c - 11.41 20 119 0 20 6066 18 58200 14186 1.9 11 6 2 8 25% 3051 80822 13924 64%
c d 11.56 20 119 0 20 6154 18 58922 14846 1.9 11 6 2 8 25% 3050 80822 13921 64%
c u 11.62 20 119 0 20 6154 18 58922 12528 1.9 11 6 2 8 25% 3055 80822 13921 64%
c v 11.70 20 119 0 20 6154 18 58922 10410 1.9 11 6 2 8 25% 3055 80822 13921 64%
c w 11.72 20 119 0 20 6154 18 58922 10402 1.9 11 6 2 8 25% 3055 80822 13921 64%
c t 11.74 20 119 0 20 6154 18 58922 10402 1.9 11 6 2 8 25% 3047 80822 13921 64%
c f 11.79 20 119 0 20 6154 18 58922 10402 1.9 11 6 2 8 25% 3059 80767 13929 64%
c u 11.85 20 119 0 20 6154 18 58922 10111 1.9 11 6 2 8 25% 3060 80767 13929 64%
c v 11.92 20 119 0 20 6154 18 58922 9716 1.9 11 6 2 8 25% 3061 80767 13929 64%
c w 11.94 20 119 0 20 6154 18 58922 9708 1.9 11 6 2 8 25% 3061 80767 13929 64%
c x 12.01 20 119 0 20 6154 18 58922 9707 1.9 11 6 2 8 25% 3075 80713 13929 64%
c d 12.02 20 119 0 20 6154 18 58922 9707 1.9 11 6 2 8 25% 3073 80710 13928 64%
c t 12.03 20 119 0 20 6154 18 58922 9707 1.9 11 6 2 8 25% 3060 80710 13928 64%
c - 12.72 20 119 0 21 6502 18 62672 11389 1.9 11 6 2 8 25% 3077 80710 13928 64%
c - 13.47 20 118 0 22 6942 18 67254 13622 1.9 11 6 2 8 25% 3099 80710 13928 64%
c o 13.95 20 118 0 22 7217 18 70143 16316 1.8 11 6 2 8 25% 3107 80710 13928 64%
c
c  seconds   switched     rate         size/glue tier1    binary         remaining
c         MB   reductions   conflicts        size  tier2     irredundant
c           level   restarts      redundant    glue   trail         variables
c
c - 14.36 20 118 0 23 7418 18 71944 15421 1.8 11 6 2 8 26% 3111 80710 13928 64%
c - 15.16 21 118 0 24 7848 18 76739 16767 1.8 11 6 2 8 26% 3145 80706 13928 64%
c d 15.68 21 117 0 24 8115 18 79995 19712 1.8 11 6 2 8 26% 3139 80703 13917 64%
c u 15.76 21 117 0 24 8115 18 79995 17022 1.8 11 6 2 8 26% 3149 80703 13917 64%
c v 15.89 21 117 0 24 8115 18 79995 14309 1.8 11 6 2 8 26% 3150 80703 13917 64%
c w 15.94 21 117 0 24 8115 18 79995 14265 1.8 11 6 2 8 26% 3150 80703 13917 64%
c d 15.95 21 117 0 24 8115 18 79995 14263 1.8 11 6 2 8 26% 3146 80703 13915 64%
c t 15.96 21 117 0 24 8115 18 79995 14263 1.8 11 6 2 8 26% 3130 80703 13915 64%
c u 16.06 21 117 0 24 8115 18 79995 13891 1.8 11 6 2 8 26% 3130 80703 13915 64%
c v 16.17 21 117 0 24 8115 18 79995 13306 1.8 11 6 2 8 26% 3130 80703 13915 64%
c w 16.22 21 117 0 24 8115 18 79995 13246 1.8 11 6 2 8 26% 3130 80703 13915 64%
c = 16.55 21 117 0 24 8115 18 79995 13246 1.8 11 6 2 8 26% 3354 80680 13803 63%
c d 16.56 21 117 0 24 8115 18 79995 13188 1.8 11 6 2 8 26% 3122 80680 13803 63%
c t 16.57 21 117 0 24 8115 18 79995 13188 1.8 11 6 2 8 26% 3096 80680 13803 63%
c f 16.59 21 117 0 24 8115 18 79995 13188 1.8 11 6 2 8 26% 3098 80666 13805 63%
c - 16.78 21 118 0 25 8244 18 81637 12596 1.8 11 6 2 7 26% 3100 80666 13805 63%
c - 17.59 21 118 0 26 8665 17 86638 14871 1.8 11 6 2 7 26% 3119 80666 13805 63%
c - 18.54 21 118 0 27 9149 17 91737 16922 1.8 11 6 2 7 26% 3151 80665 13805 63%
c s 19.27 21 118 0 27 9536 17 95855 20738 1.8 11 6 2 7 26% 3168 80013 13805 63%
c e 19.39 21 118 0 27 9536 17 95855 20738 1.8 11 6 2 7 26% 2675 82171 13224 61%
c
c  seconds   switched     rate         size/glue tier1    binary         remaining
c         MB   reductions   conflicts        size  tier2     irredundant
c           level   restarts      redundant    glue   trail         variables
c
c 2 19.39 21 118 0 27 9536 17 95855 20738 1.8 11 6 2 7 26% 2671 82171 13224 61%
c s 19.40 21 118 0 27 9536 17 95855 20738 1.8 11 6 2 7 26% 2687 81523 13224 61%
c e 19.43 21 118 0 27 9536 17 95855 20738 1.8 11 6 2 7 26% 2622 81671 13203 61%
c ^ 19.43 21 118 0 27 9536 17 95855 20738 1.8 11 6 2 7 26% 2622 81671 13203 61%
c - 19.62 21 118 0 28 9610 17 96934 16406 1.8 11 6 2 7 26% 2626 81671 13203 61%
c - 20.65 21 119 0 29 10007 17 102226 18436 1.8 11 6 2 7 27% 2636 81671 13203 61%
c c 20.94 21 119 0 29 10211 17 104624 20681 1.8 11 6 2 7 27% 2689 81545 13184 61%
c d 20.94 21 119 0 29 10211 17 104624 20659 1.8 11 6 2 7 27% 2651 81545 13184 61%
c u 21.00 21 119 0 29 10211 17 104624 17596 1.8 11 6 2 7 27% 2659 81545 13184 61%
c v 21.07 21 119 0 29 10211 17 104624 14992 1.8 11 6 2 7 27% 2659 81545 13184 61%
c w 21.10 21 119 0 29 10211 17 104624 14956 1.8 11 6 2 7 27% 2659 81545 13184 61%
c t 21.11 21 119 0 29 10211 17 104624 14956 1.8 11 6 2 7 27% 2639 81545 13184 61%
c f 21.15 21 119 0 29 10211 17 104624 14956 1.8 11 6 2 7 27% 2643 81521 13186 61%
c u 21.19 21 119 0 29 10211 17 104624 14484 1.8 11 6 2 7 27% 2644 81521 13186 61%
c v 21.25 21 119 0 29 10211 17 104624 13910 1.8 11 6 2 7 27% 2644 81521 13186 61%
c w 21.27 21 119 0 29 10211 17 104624 13839 1.8 11 6 2 7 27% 2644 81521 13186 61%
c = 21.57 21 119 0 29 10211 17 104624 13839 1.8 11 6 2 7 27% 3390 81456 12813 59%
c d 21.57 21 119 0 29 10211 17 104624 13634 1.8 11 6 2 7 27% 2616 81456 12813 59%
c t 21.58 21 119 0 29 10211 17 104624 13634 1.8 11 6 2 7 27% 2513 81456 12813 59%
c f 21.60 21 119 0 29 10211 17 104624 13634 1.8 11 6 2 7 27% 2525 81322 12825 59%
c
c  seconds   switched      rate          size/glue tier1    binary         remaining
c         MB   reductions    conflicts         size  tier2     irredundant
c           level   restarts        redundant    glue   trail         variables
c
c - 21.94 21 119 0 30 10465 17 107611 14200 1.8 11 6 2 7 27% 2528 81322 12825 59%
c o 22.19 21 119 0 30 10615 17 110152 16597 1.8 11 6 2 7 28% 2536 81322 12825 59%
c - 22.45 21 118 0 31 10807 17 113088 16530 1.8 11 6 2 7 27% 2557 81320 12825 59%
c - 22.97 21 118 0 32 11211 17 118657 18623 1.8 11 6 2 7 28% 2567 81317 12825 59%
c - 23.53 21 117 0 33 11587 17 124314 20433 1.8 11 6 2 7 28% 2585 81314 12825 59%
c - 24.17 21 117 0 34 12053 17 130058 21891 1.8 11 6 2 7 28% 2619 81311 12825 59%
c d 24.39 21 116 0 34 12248 16 132879 24422 1.8 11 6 2 7 28% 2611 81308 12812 59%
c u 24.46 21 116 0 34 12248 16 132879 21598 1.8 11 6 2 7 28% 2633 81308 12812 59%
c v 24.51 21 116 0 34 12248 16 132879 20438 1.8 11 6 2 7 28% 2633 81308 12812 59%
c w 24.54 21 116 0 34 12248 16 132879 20416 1.8 11 6 2 7 28% 2633 81308 12812 59%
c x 24.59 23 116 0 34 12248 16 132879 20408 1.8 11 6 2 7 28% 2679 80862 12812 59%
c = 24.92 23 116 0 34 12248 16 132879 20408 1.8 11 6 2 7 28% 3027 80846 12638 58%
c d 24.93 23 116 0 34 12248 16 132879 20281 1.8 11 6 2 7 28% 2662 80846 12636 58%
c t 24.93 23 116 0 34 12248 16 132879 20281 1.8 11 6 2 7 28% 2485 80846 12636 58%
c f 24.95 23 116 0 34 12248 16 132879 20281 1.8 11 6 2 7 28% 2491 80782 12642 58%
c c 24.99 23 116 0 34 12248 16 132879 20247 1.8 11 6 2 7 28% 2503 80758 12638 58%
c d 24.99 23 116 0 34 12248 16 132879 20247 1.8 11 6 2 7 28% 2495 80758 12638 58%
c u 25.05 23 116 0 34 12248 16 132879 18885 1.8 11 6 2 7 28% 2502 80758 12638 58%
c v 25.12 23 116 0 34 12248 16 132879 16475 1.8 11 6 2 7 28% 2505 80758 12638 58%
c w 25.15 23 116 0 34 12248 16 132879 16420 1.8 11 6 2 7 28% 2505 80758 12638 58%
c
c  seconds   switched      rate          size/glue tier1    binary         remaining
c         MB   reductions    conflicts         size  tier2     irredundant
c           level   restarts        redundant    glue   trail         variables
c
c = 25.48 23 116 0 34 12248 16 132879 16420 1.8 11 6 2 7 28% 2909 80746 12436 57%
c d 25.49 23 116 0 34 12248 16 132879 16324 1.8 11 6 2 7 28% 2495 80746 12436 57%
c t 25.49 23 116 0 34 12248 16 132879 16324 1.8 11 6 2 7 28% 2386 80746 12436 57%
c f 25.51 23 116 0 34 12248 16 132879 16324 1.8 11 6 2 7 28% 2398 80665 12443 57%
c - 25.81 23 116 0 35 12446 16 135889 16547 1.8 11 6 2 7 28% 2403 80665 12443 57%
c - 26.31 23 115 0 36 12812 16 141806 19310 1.8 11 6 2 7 28% 2426 80665 12443 57%
c - 26.93 23 115 0 37 13269 16 147807 21575 1.8 11 6 2 7 28% 2441 80665 12443 57%
c - 27.64 23 115 0 38 13868 16 153889 23338 1.8 11 6 2 7 28% 2451 80664 12443 57%
c s 28.02 23 115 0 38 14190 16 157941 27063 1.8 11 6 2 7 28% 2482 76778 12443 57%
c e 28.19 27 115 0 38 14190 16 157941 27063 1.8 11 6 2 7 28% 1929 95281 9598 44%
c 2 28.19 27 115 0 38 14190 16 157941 27063 1.8 11 6 2 7 28% 1927 95281 9598 44%
c s 28.23 27 115 0 38 14190 16 157941 27063 1.8 11 6 2 7 28% 1933 93399 9598 44%
c e 28.27 27 115 0 38 14190 16 157941 27063 1.8 11 6 2 7 28% 1910 93498 9586 44%
c ^ 28.27 27 115 0 38 14190 16 157941 27063 1.8 11 6 2 7 28% 1910 93498 9586 44%
c - 28.47 28 115 0 39 14402 16 160053 10949 1.8 11 6 2 7 28% 1911 93497 9586 44%
c o 28.49 28 115 0 39 14407 16 160181 11065 1.8 11 6 2 7 28% 1911 93497 9586 44%
c u 28.98 29 115 0 39 14876 16 164870 13816 1.8 11 6 2 7 28% 1925 93497 9586 44%
c v 29.03 29 115 0 39 14876 16 164870 11516 1.8 11 6 2 7 28% 1925 93497 9586 44%
c w 29.07 29 115 0 39 14876 16 164870 11356 1.8 11 6 2 7 28% 1925 93497 9586 44%
c = 29.23 29 115 0 39 14876 16 164870 11356 1.8 11 6 2 7 28% 2181 93386 9458 43%
c
c  seconds   switched      rate          size/glue tier1    binary        remaining
c         MB   reductions    conflicts         size  tier2     irredundant
c           level   restarts        redundant    glue   trail        variables
c
c d 29.23 29 115 0 39 14876 16 164870 11252 1.8 11 6 2 7 28% 1906 93386 9458 43%
c t 29.24 29 115 0 39 14876 16 164870 11252 1.8 11 6 2 7 28% 1828 93386 9458 43%
c f 29.33 29 115 0 39 14876 16 164870 11252 1.8 11 6 2 7 28% 1842 93108 9465 43%
c u 29.36 29 115 0 39 14876 16 164870 11053 1.8 11 6 2 7 28% 1848 93108 9465 43%
c v 29.40 29 115 0 39 14876 16 164870 10671 1.8 11 6 2 7 28% 1848 93108 9465 43%
c w 29.44 29 115 0 39 14876 16 164870 10506 1.8 11 6 2 7 28% 1848 93108 9465 43%
c x 29.54 29 115 0 39 14876 16 164870 10447 1.8 11 6 2 7 28% 1887 92302 9465 43%
c = 29.93 29 115 0 39 14876 16 164870 10447 1.8 11 6 2 7 28% 2009 92271 9404 43%
c d 29.94 29 115 0 39 14876 16 164870 10438 1.8 11 6 2 7 28% 1886 92271 9404 43%
c t 29.95 29 115 0 39 14876 16 164870 10438 1.8 11 6 2 7 28% 1766 92271 9404 43%
c f 30.03 29 115 0 39 14876 16 164870 10438 1.8 11 6 2 7 28% 1786 92051 9413 43%
c - 30.15 29 115 0 40 14983 16 166297 10049 1.8 11 6 2 7 28% 1786 92051 9413 43%
c - 30.84 29 116 0 41 15689 17 172621 13417 1.8 11 6 2 7 29% 1790 92048 9413 43%
c - 31.36 29 115 0 42 16331 17 179024 16003 1.8 11 6 2 7 29% 1795 92047 9413 43%
c - 31.99 30 115 0 43 17048 17 185505 17537 1.7 11 6 2 7 29% 1802 92044 9413 43%
c - 32.50 30 115 0 44 17660 17 192062 18829 1.7 11 6 2 7 29% 1812 92039 9413 43%
c - 33.05 30 115 0 45 18323 17 198698 19973 1.7 11 6 2 7 29% 1826 92035 9413 43%
c d 33.22 30 115 0 45 18513 17 200650 21795 1.7 11 6 2 7 29% 1827 92031 9412 43%
c u 33.26 30 115 0 45 18513 17 200650 19810 1.7 11 6 2 7 29% 1838 92031 9412 43%
c v 33.34 30 115 0 45 18513 17 200650 15925 1.7 11 6 2 7 29% 1839 92031 9412 43%
c
c  seconds   switched      rate          size/glue tier1    binary        remaining
c         MB   reductions    conflicts         size  tier2     irredundant
c           level   restarts        redundant    glue   trail        variables
c
c w 33.36 30 115 0 45 18513 17 200650 15863 1.7 11 6 2 7 29% 1839 92031 9412 43%
c = 33.75 30 115 0 45 18513 17 200650 15863 1.7 11 6 2 7 29% 1887 92001 9388 43%
c d 33.75 30 115 0 45 18513 17 200650 15846 1.7 11 6 2 7 29% 1837 92001 9388 43%
c t 33.76 30 115 0 45 18513 17 200650 15846 1.7 11 6 2 7 29% 1830 92001 9388 43%
c f 33.85 30 115 0 45 18513 17 200650 15846 1.7 11 6 2 7 29% 1829 91983 9389 43%
c u 33.91 30 115 0 45 18513 17 200650 15612 1.7 11 6 2 7 29% 1845 91983 9389 43%
c v 33.96 30 115 0 45 18513 17 200650 15039 1.7 11 6 2 7 29% 1845 91983 9389 43%
c w 33.98 30 115 0 45 18513 17 200650 14972 1.7 11 6 2 7 29% 1845 91983 9389 43%
c x 34.10 30 115 0 45 18513 17 200650 14889 1.7 11 6 2 7 29% 1942 88329 9389 43%
c = 34.49 30 115 0 45 18513 17 200650 14889 1.7 11 6 2 7 29% 2054 88230 9328 43%
c d 34.49 30 115 0 45 18513 17 200650 14854 1.7 11 6 2 7 29% 1937 88230 9328 43%
c t 34.50 30 115 0 45 18513 17 200650 14854 1.7 11 6 2 7 29% 1828 88230 9328 43%
c - 34.94 30 115 0 46 18975 17 205407 15788 1.7 11 6 2 7 29% 1827 88230 9328 43%
c - 35.49 30 115 0 47 19567 17 212190 18410 1.7 11 6 2 7 29% 1830 88230 9328 43%
c - 35.96 30 115 0 48 20113 17 219045 20250 1.7 11 6 2 7 29% 1838 88219 9328 43%
c o 36.06 30 115 0 48 20247 17 220194 21332 1.7 11 6 2 7 29% 1839 88219 9328 43%
c - 36.45 30 114 0 49 20660 17 225973 21627 1.7 11 6 2 7 29% 1844 88217 9328 43%
c i 36.62 30 114 0 49 20883 17 227889 23414 1.7 11 6 2 7 29% 1849 88214 9327 43%
c - 37.04 30 114 0 50 21326 17 232973 22977 1.7 11 6 2 7 29% 1855 88209 9327 43%
c - 37.52 30 114 0 51 21891 16 240044 24223 1.7 11 6 2 7 29% 1885 88204 9327 43%
c
c  seconds   switched      rate          size/glue tier1    binary        remaining
c         MB   reductions    conflicts         size  tier2     irredundant
c           level   restarts        redundant    glue   trail        variables
c
c s 37.54 30 114 0 51 21892 16 240047 24226 1.7 11 6 2 7 29% 1889 87897 9327 43%
c e 37.69 30 114 0 51 21892 16 240047 24226 1.7 11 6 2 7 29% 1323 100456 8307 38%
c 2 37.69 30 114 0 51 21892 16 240047 24226 1.7 11 6 2 7 29% 1319 100456 8307 38%
c s 37.72 30 114 0 51 21892 16 240047 24226 1.7 11 6 2 7 29% 1332 98236 8307 38%
c e 37.77 30 114 0 51 21892 16 240047 24226 1.7 11 6 2 7 29% 1286 98635 8279 38%
c ! 37.77 30 114 0 51 21892 16 240047 24226 1.7 11 6 2 7 29% 1286 98635 8279 38%
c u 37.83 30 114 0 51 21916 16 240315 16520 1.7 11 6 2 7 29% 1291 98635 8279 38%
c v 37.89 30 114 0 51 21916 16 240315 13679 1.7 11 6 2 7 29% 1291 98635 8279 38%
c w 37.89 30 114 0 51 21916 16 240315 13672 1.7 11 6 2 7 29% 1291 98635 8279 38%
c x 37.98 30 114 0 51 21916 16 240315 13546 1.7 11 6 2 7 29% 1322 98281 8279 38%
c t 38.36 30 114 0 51 21916 16 240315 13546 1.7 11 6 2 7 29% 1273 98281 8279 38%
c f 38.44 30 114 0 51 21916 16 240315 13546 1.7 11 6 2 7 29% 1293 97837 8288 38%
c u 38.49 30 114 0 51 21916 16 240315 13354 1.7 11 6 2 7 29% 1293 97837 8288 38%
c v 38.52 30 114 0 51 21916 16 240315 12970 1.7 11 6 2 7 29% 1293 97837 8288 38%
c w 38.53 30 114 0 51 21916 16 240315 12960 1.7 11 6 2 7 29% 1293 97837 8288 38%
c x 38.67 30 114 0 51 21916 16 240315 12909 1.7 11 6 2 7 29% 1348 96170 8288 38%
c t 38.68 30 114 0 51 21916 16 240315 12909 1.7 11 6 2 7 29% 1297 96170 8288 38%
c f 38.77 30 114 0 51 21916 16 240315 12909 1.7 11 6 2 7 29% 1321 95751 8300 38%
c - 39.33 30 115 0 52 22585 17 247185 15842 1.7 11 6 2 7 29% 1324 95750 8300 38%
c - 39.89 30 114 0 53 23308 17 254396 18956 1.7 11 6 2 7 29% 1330 95750 8300 38%
c
c  seconds   switched      rate          size/glue tier1    binary        remaining
c         MB   reductions    conflicts         size  tier2     irredundant
c           level   restarts        redundant    glue   trail        variables
c
c - 40.42 30 114 0 54 24070 17 261678 20775 1.7 11 7 2 7 29% 1337 95749 8300 38%
c - 41.00 30 114 0 55 24809 17 269026 22061 1.7 11 7 2 7 29% 1344 95746 8300 38%
c - 41.55 30 114 0 56 25512 17 276444 23215 1.7 11 7 2 7 28% 1350 95745 8300 38%
c - 42.14 30 114 0 57 26174 17 283928 24303 1.7 11 7 2 8 29% 1354 95744 8300 38%
c d 42.15 30 114 0 57 26178 17 283942 24308 1.7 11 7 2 8 29% 1352 95744 8299 38%
c u 42.20 30 114 0 57 26178 17 283942 22359 1.7 11 7 2 8 29% 1357 95744 8299 38%
c v 42.27 30 114 0 57 26178 17 283942 18268 1.7 11 7 2 8 29% 1359 95744 8299 38%
c w 42.28 30 114 0 57 26178 17 283942 18268 1.7 11 7 2 8 29% 1359 95744 8299 38%
c x 42.36 30 114 0 57 26178 17 283942 18186 1.7 11 7 2 8 29% 1359 95734 8299 38%
c = 42.78 30 114 0 57 26178 17 283942 18186 1.7 11 7 2 8 29% 1411 95621 8264 38%
c d 42.79 30 114 0 57 26178 17 283942 18140 1.7 11 7 2 8 29% 1359 95621 8264 38%
c t 42.79 30 114 0 57 26178 17 283942 18140 1.7 11 7 2 8 29% 1343 95621 8264 38%
c f 42.89 30 114 0 57 26178 17 283942 18140 1.7 11 7 2 8 29% 1390 95221 8281 38%
c u 42.93 30 114 0 57 26178 17 283942 17881 1.7 11 7 2 8 29% 1396 95221 8280 38%
c v 42.98 30 114 0 57 26178 17 283942 17307 1.7 11 7 2 8 29% 1399 95221 8280 38%
c w 42.99 30 114 0 57 26178 17 283942 17304 1.7 11 7 2 8 29% 1399 95221 8280 38%
c = 43.41 30 114 0 57 26178 17 283942 17304 1.7 11 7 2 8 29% 1418 95050 8254 38%
c d 43.41 30 114 0 57 26178 17 283942 17262 1.7 11 7 2 8 29% 1403 95023 8254 38%
c d 43.42 30 114 0 57 26178 17 283942 17262 1.7 11 7 2 8 29% 1401 95023 8253 38%
c t 43.42 30 114 0 57 26178 17 283942 17262 1.7 11 7 2 8 29% 1392 95023 8253 38%
c
c  seconds   switched      rate          size/glue tier1    binary        remaining
c         MB   reductions    conflicts         size  tier2     irredundant
c           level   restarts        redundant    glue   trail        variables
c
c i 43.45 30 114 0 57 26178 17 283942 17262 1.7 11 7 2 8 29% 1392 95023 8253 38%
c i 43.60 30 114 0 57 26361 17 286129 19325 1.7 11 7 2 8 29% 1396 95021 8252 38%
c i 43.63 30 114 0 57 26414 17 286666 19823 1.7 11 7 2 8 29% 1400 95020 8251 38%
c i 43.78 30 114 0 57 26612 17 289043 22008 1.7 11 7 2 8 28% 1410 95010 8250 38%
c o 43.84 30 114 0 57 26679 17 290210 23083 1.7 11 7 2 8 28% 1417 95010 8250 38%
c - 43.93 30 114 0 58 26799 17 291478 19984 1.7 11 7 2 8 28% 1366 95008 8250 38%
c i 44.12 30 113 0 58 27028 16 295651 23767 1.7 11 7 2 8 28% 1372 95005 8249 38%
c i 44.29 30 113 0 58 27220 17 297911 25861 1.7 11 7 2 8 28% 1381 95004 8248 38%
c i 44.29 30 113 0 58 27220 17 297925 25868 1.7 11 7 2 8 28% 1382 95004 8247 38%
c i 44.30 30 113 0 58 27230 16 298180 26071 1.7 11 7 2 8 28% 1393 94996 8245 38%
c i 44.30 30 113 0 58 27230 16 298217 26089 1.7 11 7 2 8 28% 1400 94991 8241 38%
c i 44.31 30 113 0 58 27240 16 298599 26414 1.7 11 7 2 8 28% 1411 94989 8240 38%
c i 44.31 30 113 0 58 27242 16 298679 26479 1.7 11 7 2 8 28% 1413 94987 8239 38%
c i 44.31 30 113 0 58 27249 16 298762 26550 1.7 11 7 2 8 28% 1417 94987 8236 38%
c i 44.31 30 113 0 58 27257 16 298817 26595 1.7 11 7 2 8 28% 1421 94987 8235 38%
c i 44.31 30 113 0 58 27262 16 298948 26706 1.7 11 7 2 8 28% 1427 94987 8234 38%
c i 44.31 30 113 0 58 27264 16 299001 26741 1.7 11 7 2 8 28% 1431 94987 8233 38%
c - 44.32 30 113 0 59 27265 16 299094 22385 1.7 11 7 2 8 28% 1364 94986 8233 38%
c i 44.32 30 113 0 59 27265 16 299129 22409 1.7 11 7 2 8 28% 1367 94986 8232 38%
c i 44.32 30 113 0 59 27270 16 299488 22682 1.7 11 7 2 8 28% 1375 94975 8231 38%
c
c  seconds   switched      rate          size/glue tier1    binary        remaining
c         MB   reductions    conflicts         size  tier2     irredundant
c           level   restarts        redundant    glue   trail        variables
c
c i 44.32 30 113 0 59 27270 16 299556 22721 1.7 11 7 2 8 28% 1384 94975 8229 38%
c i 44.32 30 113 0 59 27270 16 299571 22723 1.7 11 7 2 8 28% 1390 94974 8200 38%
c } 44.32 30 113 0 59 27270 16 299573 22723 1.7 11 7 2 8 28% 1390 94974 8196 38%
c 0 44.32 30 113 0 59 27270 16 299573 22723 1.7 11 7 2 8 28% 1390 94974 8196 38%
c
c ---- [ result ] ------------------------------------------------------------
c
s UNSATISFIABLE
c
c ---- [ profiling ] ---------------------------------------------------------
c
c          32.39   73.07 %  search
c          32.39   73.07 %  focused
c          11.63   26.25 %  simplify
c          10.65   24.03 %  probe
c           4.60   10.38 %  sweep
c           3.81    8.59 %  vivify
c           1.13    2.56 %  factor
c           1.11    2.50 %  eliminate
c           0.59    1.32 %  substitute
c           0.35    0.78 %  congruence
c           0.28    0.63 %  reduce
c           0.27    0.61 %  preprocess
c           0.19    0.42 %  subsume
c           0.14    0.31 %  fastel
c           0.10    0.24 %  transitive
c           0.07    0.17 %  backbone
c           0.02    0.04 %  lucky
c           0.02    0.03 %  parse
c =============================================
c          44.32  100.00 %  total
c
c ---- [ statistics ] --------------------------------------------------------
c
c chronological:                         5178                2 %  conflicts
c conflicts:                           299573             6758.77 per second
c congruent:                              223                1 %  variables
c decisions:                          4869191               16.25 per conflict
c eliminated:                           12265               56 %  variables
c factored:                               274                1 %  variables
c fast_eliminated:                       4818               39 %  eliminated
c fast_strengthened:                       48                0 %  per strengthened
c fast_subsumed:                           14                0 %  per subsumed
c iterations:                              23                0 %  variables
c propagations:                     176140972          3973975    per second
c reductions:                              59             5078    interval
c reordered:                                8            37447    interval
c restarts:                             27270               11    interval
c strengthened:                         10238                0 %  checks
c substituted:                           1501                7 %  variables
c subsumed:                             10745                0 %  checks
c switched:                                 0                0    interval
c vivified:                             93947               15 %  checks
c
c ---- [ glue usage ] --------------------------------------------------------
c
c focused glue 2   used 129380 clauses 30.68% accumulated 54.42% tier1
c focused glue 3   used  68898 clauses 16.34% accumulated 70.76%
c focused glue 4-6 used  68200 clauses 16.17% accumulated 86.93%
c focused glue 7   used  12904 clauses  3.06% accumulated 89.99%
c focused glue 8   used  10053 clauses  2.38% accumulated 92.37% tier2
c
c ---- [ resources ] ---------------------------------------------------------
c
c maximum-resident-set-size:         31731712 bytes         30 MB
c process-time:                            44s              44.32 seconds
c
c ---- [ shutting down ] -----------------------------------------------------
c
c exit 20
